; benchmark generated from python API
(set-info :status unknown)
(declare-fun syscall_stub_newfstatat_83_64 () (_ BitVec 64))
(declare-fun mem_c0000f45_79_992 () (_ BitVec 992))
(declare-fun mem_c0001010_98_32 () (_ BitVec 32))
(declare-fun mem_0_126_8 () (_ BitVec 8))
(declare-fun mem_1_377_128 () (_ BitVec 128))
(assert
 (let ((?x47 ((_ extract 31 0) syscall_stub_newfstatat_83_64)))
 (let (($x52 (bvule ?x47 (_ bv4294963200 32))))
 (not $x52))))
(assert
 (let ((?x3699 ((_ extract 891 891) mem_c0000f45_79_992)))
 (let (($x4297 (= (_ bv0 1) ?x3699)))
 (not $x4297))))
(assert
 (let ((?x2189 ((_ extract 900 900) mem_c0000f45_79_992)))
 (= (_ bv0 1) ?x2189)))
(assert
 (let ((?x8705 ((_ extract 888 888) mem_c0000f45_79_992)))
 (let (($x9102 (= (_ bv0 1) ?x8705)))
 (not $x9102))))
(assert
 (let ((?x3977 ((_ extract 583 576) mem_c0000f45_79_992)))
 (= (_ bv0 8) ?x3977)))
(assert
 (let ((?x935 ((_ extract 575 568) mem_c0000f45_79_992)))
 (= (_ bv0 8) ?x935)))
(assert
 (let ((?x4611 ((_ extract 567 560) mem_c0000f45_79_992)))
 (= (_ bv0 8) ?x4611)))
(assert
 (let ((?x3400 ((_ extract 559 552) mem_c0000f45_79_992)))
 (= (_ bv0 8) ?x3400)))
(assert
 (let ((?x3784 ((_ extract 551 544) mem_c0000f45_79_992)))
 (= (_ bv0 8) ?x3784)))
(assert
 (let ((?x3913 ((_ extract 543 536) mem_c0000f45_79_992)))
 (= (_ bv0 8) ?x3913)))
(assert
 (let ((?x4737 ((_ extract 535 528) mem_c0000f45_79_992)))
 (= (_ bv0 8) ?x4737)))
(assert
 (let ((?x4639 ((_ extract 527 520) mem_c0000f45_79_992)))
 (= (_ bv0 8) ?x4639)))
(assert
 (let ((?x2411 ((_ extract 735 728) mem_c0000f45_79_992)))
 (let (($x7359 (= (_ bv0 8) ?x2411)))
 (let (($x7360 (not $x7359)))
 (let ((?x2410 ((_ extract 743 736) mem_c0000f45_79_992)))
 (let (($x7355 (= (_ bv0 8) ?x2410)))
 (let (($x7358 (not $x7355)))
 (let ((?x2429 ((_ extract 759 752) mem_c0000f45_79_992)))
 (let (($x10082 (= (_ bv0 8) ?x2429)))
 (let (($x10079 (not $x10082)))
 (let ((?x2417 ((_ extract 751 744) mem_c0000f45_79_992)))
 (let (($x10061 (= (_ bv0 8) ?x2417)))
 (let (($x10059 (not $x10061)))
 (let ((?x2419 ((_ extract 767 760) mem_c0000f45_79_992)))
 (let (($x10069 (= (_ bv0 8) ?x2419)))
 (let (($x10067 (not $x10069)))
 (let (($x1454847 (or $x10067 $x10059 $x10079 $x7358 $x7360)))
 (let ((?x2427 ((_ extract 775 768) mem_c0000f45_79_992)))
 (let (($x99771 (= (_ bv1 8) ?x2427)))
 (let (($x99778 (not $x99771)))
 (let ((?x2400 ((_ extract 719 712) mem_c0000f45_79_992)))
 (let (($x43496 (= (_ bv0 8) ?x2400)))
 (let (($x60066 (not $x43496)))
 (let ((?x2401 ((_ extract 727 720) mem_c0000f45_79_992)))
 (let (($x43774 (= (_ bv0 8) ?x2401)))
 (let (($x19310 (not $x43774)))
 (let (($x1454821 (or $x19310 $x60066 $x99778 $x1454847)))
 (let (($x1454858 (not $x1454821)))
 (let ((?x3809 (concat (concat (concat (concat (concat ?x2400 ?x2401) ?x2411) ?x2410) ?x2417) ?x2429)))
 (let ((?x3823 (concat (concat ?x3809 ?x2419) ?x2427)))
 (let ((?x28836 (bvadd (_ bv18446744073709551615 64) ?x3823)))
 (let ((?x13368 ((_ extract 63 63) ?x28836)))
 (let (($x12179 (= (_ bv1 1) ?x13368)))
 (or $x12179 $x1454858))))))))))))))))))))))))))))))))))
(assert
 (let ((?x2357 ((_ extract 815 808) mem_c0000f45_79_992)))
 (let ((?x2417 ((_ extract 751 744) mem_c0000f45_79_992)))
 (let (($x1690 (= ?x2417 ?x2357)))
 (let (($x3670 (not $x1690)))
 (let ((?x2362 ((_ extract 807 800) mem_c0000f45_79_992)))
 (let ((?x2410 ((_ extract 743 736) mem_c0000f45_79_992)))
 (let (($x1703 (= ?x2410 ?x2362)))
 (let (($x3664 (not $x1703)))
 (let ((?x2345 ((_ extract 783 776) mem_c0000f45_79_992)))
 (let ((?x2400 ((_ extract 719 712) mem_c0000f45_79_992)))
 (let (($x1701 (= ?x2400 ?x2345)))
 (let (($x3671 (not $x1701)))
 (let ((?x2363 ((_ extract 799 792) mem_c0000f45_79_992)))
 (let ((?x2411 ((_ extract 735 728) mem_c0000f45_79_992)))
 (let (($x1704 (= ?x2411 ?x2363)))
 (let (($x3672 (not $x1704)))
 (let ((?x2346 ((_ extract 791 784) mem_c0000f45_79_992)))
 (let ((?x2401 ((_ extract 727 720) mem_c0000f45_79_992)))
 (let (($x1693 (= ?x2401 ?x2346)))
 (let (($x4136 (not $x1693)))
 (let ((?x2364 ((_ extract 831 824) mem_c0000f45_79_992)))
 (let ((?x2419 ((_ extract 767 760) mem_c0000f45_79_992)))
 (let (($x1155 (= ?x2419 ?x2364)))
 (let (($x4137 (not $x1155)))
 (let ((?x2374 ((_ extract 839 832) mem_c0000f45_79_992)))
 (let ((?x2427 ((_ extract 775 768) mem_c0000f45_79_992)))
 (let (($x1152 (= ?x2427 ?x2374)))
 (let (($x4139 (not $x1152)))
 (let ((?x2349 ((_ extract 823 816) mem_c0000f45_79_992)))
 (let ((?x2429 ((_ extract 759 752) mem_c0000f45_79_992)))
 (let (($x1714 (= ?x2429 ?x2349)))
 (let (($x4539 (not $x1714)))
 (let (($x6038 (or $x4539 $x4139 $x4137 $x4136 $x3672 $x3671 $x3664 $x3670)))
 (let (($x9215 (not $x6038)))
 (let ((?x4533 (concat (concat (concat (concat (concat ?x2345 ?x2346) ?x2363) ?x2362) ?x2357) ?x2349)))
 (let ((?x4215 (concat ?x4533 ?x2364)))
 (let ((?x3812 (concat ?x4215 ?x2374)))
 (let ((?x3646 (bvmul (_ bv18446744073709551615 64) ?x3812)))
 (let ((?x3809 (concat (concat (concat (concat (concat ?x2400 ?x2401) ?x2411) ?x2410) ?x2417) ?x2429)))
 (let ((?x3823 (concat (concat ?x3809 ?x2419) ?x2427)))
 (let ((?x3827 (bvadd ?x3823 ?x3646)))
 (let ((?x2482 ((_ extract 63 63) ?x3827)))
 (let (($x2285 (= (_ bv1 1) ?x2482)))
 (or $x2285 $x9215)))))))))))))))))))))))))))))))))))))))))))))
(assert
 (let ((?x2411 ((_ extract 735 728) mem_c0000f45_79_992)))
 (let (($x7359 (= (_ bv0 8) ?x2411)))
 (let (($x7360 (not $x7359)))
 (let ((?x2410 ((_ extract 743 736) mem_c0000f45_79_992)))
 (let (($x7355 (= (_ bv0 8) ?x2410)))
 (let (($x7358 (not $x7355)))
 (let ((?x2429 ((_ extract 759 752) mem_c0000f45_79_992)))
 (let (($x10082 (= (_ bv0 8) ?x2429)))
 (let (($x10079 (not $x10082)))
 (let ((?x2417 ((_ extract 751 744) mem_c0000f45_79_992)))
 (let (($x10061 (= (_ bv0 8) ?x2417)))
 (let (($x10059 (not $x10061)))
 (let ((?x2419 ((_ extract 767 760) mem_c0000f45_79_992)))
 (let (($x10069 (= (_ bv0 8) ?x2419)))
 (let (($x10067 (not $x10069)))
 (let (($x1454847 (or $x10067 $x10059 $x10079 $x7358 $x7360)))
 (let ((?x2400 ((_ extract 719 712) mem_c0000f45_79_992)))
 (let (($x43496 (= (_ bv0 8) ?x2400)))
 (let (($x60066 (not $x43496)))
 (let ((?x2401 ((_ extract 727 720) mem_c0000f45_79_992)))
 (let (($x43774 (= (_ bv0 8) ?x2401)))
 (let (($x19310 (not $x43774)))
 (let ((?x99834 ((_ extract 775 769) mem_c0000f45_79_992)))
 (let (($x99757 (= (_ bv0 7) ?x99834)))
 (let (($x98187 (not $x99757)))
 (or $x98187 $x19310 $x60066 $x1454847)))))))))))))))))))))))))))
(assert
 (= (_ bv0 32) mem_c0001010_98_32))
(assert
 (let (($x43695 (= (_ bv10 8) mem_0_126_8)))
 (not $x43695)))
(assert
 (let ((?x3977 ((_ extract 583 576) mem_c0000f45_79_992)))
 (let ((?x935 ((_ extract 575 568) mem_c0000f45_79_992)))
 (let ((?x4611 ((_ extract 567 560) mem_c0000f45_79_992)))
 (let ((?x3400 ((_ extract 559 552) mem_c0000f45_79_992)))
 (let ((?x3784 ((_ extract 551 544) mem_c0000f45_79_992)))
 (let ((?x3913 ((_ extract 543 536) mem_c0000f45_79_992)))
 (let ((?x12701 (concat (concat ((_ extract 527 520) mem_c0000f45_79_992) ((_ extract 535 528) mem_c0000f45_79_992)) ?x3913)))
 (let ((?x13258 (concat ?x12701 ?x3784)))
 (let ((?x13066 (concat (concat (concat (concat ?x13258 ?x3400) ?x4611) ?x935) ?x3977)))
 (let ((?x57164 (bvadd (_ bv1 64) ?x13066)))
 (= (_ bv1 64) ?x57164))))))))))))
(assert
 (let ((?x839711 ((_ extract 7 0) mem_1_377_128)))
 (and (distinct (_ bv10 8) ?x839711) true)))
(minimize mem_0_126_8)
(maximize mem_c0000f45_79_992)
(maximize mem_0_126_8)
(minimize syscall_stub_newfstatat_83_64)
(minimize mem_1_377_128)
(maximize mem_c0001010_98_32)
(minimize mem_c0001010_98_32)
(minimize mem_c0000f45_79_992)
(maximize mem_1_377_128)
(maximize syscall_stub_newfstatat_83_64)
(check-sat)
(get-objectives)
